0000000000000000
0000000000000000
0000000000000000
0000111111111100
0000000000011100
0000000000001100
0000000000001100
0000000100001100
0000000100001100
0000000100001100
0000000000000000
0000000000000000
0000000000000000
0000000000000000
0000000000000000
0000000000000000
